CeO2 - (111) vacuum 14A adsorb O2
1.0000000000
 +2.7050000000  -2.7050000000  +0.0000000000
 +0.0000000000  +2.7050000000  -2.7050000000
+13.4929037687 +13.4929037687 +13.4929037687
 Ce O
 3 9
Selective dynamics
Direct
 +0.0555555423  +0.1111110000  +0.2356500947  T T T
 +0.7222222090  +0.4444444180  +0.1002378749  F F F
 +0.3888888756  +0.7777777513  +0.3701494901  T T T
 +0.0555555423  +0.1111110846  +0.3358783137  T T T
 +0.3888888756  +0.7777777513  +0.0668252499  F F F
 +0.7222222090  +0.4444444180  +0.2017477003  T T T
 +0.3888888756  +0.7777777513  +0.2698113042  T T T
 +0.0555555423  +0.1111110846  +0.1336504999  F F F
 +0.7222222090  +0.4444444180  +0.0000000000  F F F
 +0.7222222090  +0.4444444180  +0.4027064281  T T T
 +0.3888888762  +0.7777777523  +0.4967505109  T T T
 +0.3888888749  +0.7777777498  +0.5494846924  T T T
